(set-logic QF_UF)
(declare-fun A0 () Bool)
(declare-fun A1 () Bool)
(declare-fun A2 () Bool)
(declare-fun A4 () Bool)
(declare-fun A5 () Bool)
(declare-fun A6 () Bool)
(declare-fun A7 () Bool)
(declare-fun A8 () Bool)
(declare-fun A9 () Bool)
(declare-fun A10 () Bool)
(declare-fun A11 () Bool)
(declare-fun A12 () Bool)
(declare-fun A13 () Bool)
(declare-fun A14 () Bool)
(declare-fun A15 () Bool)
(declare-fun A16 () Bool)
(declare-fun A18 () Bool)
(declare-fun A19 () Bool)
(declare-fun A20 () Bool)
(declare-fun A21 () Bool)
(declare-fun A22 () Bool)
(declare-fun A23 () Bool)
(declare-fun A24 () Bool)
(assert (let ((.def_0 (not A19))) (let ((.def_1 (and .def_0 A15))) (let ((.def_2 (not .def_1))) (let ((.def_3 (and A8 A15))) (let ((.def_4 (and .def_3 .def_2))) (let ((.def_5 (not .def_4))) (let ((.def_6 (and A4 A23))) (let ((.def_7 (not .def_6))) (let ((.def_8 (not A12))) (let ((.def_9 (and .def_8 A11))) (let ((.def_10 (not .def_9))) (let ((.def_11 (or .def_10 .def_7))) (let ((.def_12 (= .def_11 .def_5))) (let ((.def_13 (not .def_12))) (let ((.def_14 (not A14))) (let ((.def_15 (and .def_0 .def_14))) (let ((.def_16 (not A5))) (let ((.def_17 (and .def_16 A22))) (let ((.def_18 (or .def_17 .def_15))) (let ((.def_19 (not .def_18))) (let ((.def_20 (not A6))) (let ((.def_21 (or .def_20 A12))) (let ((.def_22 (not .def_21))) (let ((.def_23 (not A10))) (let ((.def_24 (and .def_23 A22))) (let ((.def_25 (not .def_24))) (let ((.def_26 (and .def_25 .def_22))) (let ((.def_27 (or .def_26 .def_19))) (let ((.def_28 (and .def_27 .def_13))) (let ((.def_29 (not .def_28))) (let ((.def_30 (not A7))) (let ((.def_31 (and .def_30 A7))) (let ((.def_32 (not A24))) (let ((.def_33 (not A20))) (let ((.def_34 (and .def_33 .def_32))) (let ((.def_35 (not .def_34))) (let ((.def_36 (and .def_35 .def_31))) (let ((.def_37 (not .def_36))) (let ((.def_38 (and A18 .def_20))) (let ((.def_39 (not A13))) (let ((.def_40 (and .def_16 .def_39))) (let ((.def_41 (and .def_40 .def_38))) (let ((.def_42 (not .def_41))) (let ((.def_43 (and .def_42 .def_37))) (let ((.def_44 (not A15))) (let ((.def_45 (not A4))) (let ((.def_46 (and .def_45 .def_44))) (let ((.def_47 (not .def_46))) (let ((.def_48 (or .def_14 A22))) (let ((.def_49 (not .def_48))) (let ((.def_50 (or .def_49 .def_47))) (let ((.def_51 (not .def_50))) (let ((.def_52 (and .def_20 A7))) (let ((.def_53 (not A8))) (let ((.def_54 (or A19 .def_53))) (let ((.def_55 (not .def_54))) (let ((.def_56 (and .def_55 .def_52))) (let ((.def_57 (not .def_56))) (let ((.def_58 (or .def_57 .def_51))) (let ((.def_59 (not .def_58))) (let ((.def_60 (= .def_59 .def_43))) (let ((.def_61 (or .def_60 .def_29))) (let ((.def_62 (not .def_61))) (let ((.def_63 (not A9))) (let ((.def_64 (and A14 .def_63))) (let ((.def_65 (and A7 .def_8))) (let ((.def_66 (not .def_65))) (let ((.def_67 (and .def_66 .def_64))) (let ((.def_68 (and .def_30 A12))) (let ((.def_69 (not .def_68))) (let ((.def_70 (not A16))) (let ((.def_71 (and .def_70 .def_63))) (let ((.def_72 (and .def_71 .def_69))) (let ((.def_73 (not .def_72))) (let ((.def_74 (and .def_73 .def_67))) (let ((.def_75 (and .def_53 .def_14))) (let ((.def_76 (not .def_75))) (let ((.def_77 (or .def_53 A20))) (let ((.def_78 (or .def_77 .def_76))) (let ((.def_79 (not .def_78))) (let ((.def_80 (or A6 A8))) (let ((.def_81 (= A10 A7))) (let ((.def_82 (and .def_81 .def_80))) (let ((.def_83 (not .def_82))) (let ((.def_84 (and .def_83 .def_79))) (let ((.def_85 (and .def_84 .def_74))) (let ((.def_86 (not .def_85))) (let ((.def_87 (and A21 .def_23))) (let ((.def_88 (not A18))) (let ((.def_89 (or .def_39 .def_88))) (let ((.def_90 (and .def_89 .def_87))) (let ((.def_91 (or A6 .def_33))) (let ((.def_92 (not A1))) (let ((.def_93 (not A2))) (let ((.def_94 (or .def_93 .def_92))) (let ((.def_95 (not .def_94))) (let ((.def_96 (and .def_95 .def_91))) (let ((.def_97 (not .def_96))) (let ((.def_98 (or .def_97 .def_90))) (let ((.def_99 (not A11))) (let ((.def_100 (and .def_99 A18))) (let ((.def_101 (not .def_100))) (let ((.def_102 (not A22))) (let ((.def_103 (or .def_102 A2))) (let ((.def_104 (or .def_103 .def_101))) (let ((.def_105 (not .def_104))) (let ((.def_106 (and A0 A5))) (let ((.def_107 (and A22 .def_45))) (let ((.def_108 (or .def_107 .def_106))) (let ((.def_109 (and .def_108 .def_105))) (let ((.def_110 (not .def_109))) (let ((.def_111 (or .def_110 .def_98))) (let ((.def_112 (not .def_111))) (let ((.def_113 (and .def_112 .def_86))) (let ((.def_114 (not .def_113))) (let ((.def_115 (or .def_114 .def_62))) (let ((.def_116 (not .def_115))) .def_116))))))))))))))))))))))))))))))))))))))))))))))))))))))))))))))))))))))))))))))))))))))))))))))))))))))))))))))))))))))
(check-sat)
